c CNF pour E équipes sur 4 jours
c
p cnf 49 42
-2 -3 0
-11 -12 0
-20 -21 0
-29 -30 0
-4 -6 0
-13 -15 0
-22 -24 0
-31 -33 0
-7 -8 0
-16 -17 0
-25 -26 0
-34 -35 0
2 11 20 29 0
-2 -11 0
-2 -20 0
-2 -29 0
-11 -20 0
-11 -29 0
-20 -29 0
4 13 22 31 0
-4 -13 0
-4 -22 0
-4 -31 0
-13 -22 0
-13 -31 0
-22 -31 0
3 12 21 30 0
-3 -12 0
-3 -21 0
-3 -30 0
-12 -21 0
-12 -30 0
-21 -30 0
7 16 25 34 0
-7 -16 0
-7 -25 0
-7 -34 0
-16 -25 0
-16 -34 0
-25 -34 0
6 15 24 33 0
-6 -15 0
-6 -24 0
-6 -33 0
-15 -24 0
-15 -33 0
-24 -33 0
8 17 26 35 0
-8 -17 0
-8 -26 0
-8 -35 0
-17 -26 0
-17 -35 0
-26 -35 0
